NAME: cities_5_7
TYPE: TSP
COMMENT: Generated from CSV
DIMENSION: 5
EDGE_WEIGHT_TYPE: EUC_2D
NODE_COORD_SECTION
1 75.63096542122447 24.71702002871716
2 80.58084352891748 12.538555522129602
3 23.87704141874416 14.982144702632691
4 43.11064718679777 46.48553082531822
5 32.84890131085515 79.91031714893225
EOF
